<number of tasks>
50

<cycle time>
1000

<order strength>
0.598


<task times>
1 40
2 171
3 97
4 261
5 254
6 32
7 214
8 180
9 79
10 32
11 123
12 64
13 183
14 184
15 48
16 21
17 190
18 54
19 311
20 91
21 123
22 322
23 199
24 150
25 29
26 58
27 79
28 398
29 314
30 163
31 180
32 111
33 178
34 180
35 237
36 150
37 45
38 259
39 149
40 121
41 95
42 54
43 136
44 246
45 336
46 47
47 43
48 169
49 168
50 23

<precedence relations>
1,7
2,4
2,5
2,6
2,14
3,4
3,7
3,8
4,9
5,10
5,23
6,9
6,23
7,12
7,13
7,14
8,11
8,14
8,22
9,15
9,17
9,18
10,18
11,15
11,16
11,20
12,15
13,16
13,17
13,18
14,16
14,24
15,19
15,30
16,23
17,19
17,20
17,22
17,24
18,19
18,21
19,41
21,25
22,26
23,26
24,39
24,50
25,28
25,31
25,32
26,27
26,29
26,30
26,34
27,44
28,34
28,36
30,35
30,36
30,42
31,33
31,45
32,49
33,37
33,38
33,42
34,37
34,39
34,44
35,37
35,38
35,40
36,41
37,43
37,47
38,44
38,47
39,46
40,45
40,49
41,48
42,47
43,49
45,50
46,48
46,49
47,49

<end>
